peakDumbCharging = 11100; 
Machine = anon_enum(16); 
machineSpeed = [3700,3700,3700,3700,3700,3700,3700,3700,3700,3700,3700,3700,3700,3700,3700,3700]; 
machineLoad = [3700,3700,3700,3700,3700,3700,3700,3700,3700,3700,3700,3700,3700,3700,3700,3700]; 
Car = anon_enum(8); 
demandCar = [6880,18640,3000,7880,6120,26520,18000,7160]; 
arrivalCar = [78,77,66,63,61,55,49,36]; 
departureCar = [82,83,68,67,64,64,57,40]; 
